Maximize
  0.00120409271903344 Z_434_0_0 + 0.00952199060179232 Z_434_0_1
   + 0.8473922948009365 Z_434_0_2 + 0.0242277398777233 Z_434_0_3
Subject To
 constraint1_4340: Z_434_0_0 + Z_434_0_1 + Z_434_0_2 + Z_434_0_3 <= 1
 constraint2_4340: Z_434_0_0 <= 1
 constraint2_4341: Z_434_0_1 <= 1
 constraint2_4342: Z_434_0_2 <= 1
 constraint2_4343: Z_434_0_3 <= 1
Bounds
Binaries
 Z_434_0_0 Z_434_0_1 Z_434_0_2 Z_434_0_3
End
